(assert (forall ((pkt_0_3_5_0  Int  )(state_group_0_state_0_4_6_0  Int  )) (let ((_n0 state_group_0_state_0_4_6_0 ))
(let ((_n1 true ))
(let ((_n2 (+   _n0   (ite  _n1  1 0) ) ))
(let ((_n3 (ite (=  _n0  29)  _n0   _n2  ) ))
(let ((_n4 (ite (=  _n0  29)  _n0   _n3  ) ))
(let ((_n5 false ))
(let ((_n6 (ite (=  _n0  29)  (ite  _n5  1 0)   _n0  ) ))
(let ((_n7 (ite (=  _n0  29)  _n6   _n0  ) ))
(let ((_n8 (ite (=  _n0  29)  _n7   _n0  ) ))
(let ((_n9 (ite (=  _n0  29)  _n8   _n4  ) ))
(let ((_n10 29 ))
(let ((_n11 (=   _n0   _n10 ) ))
(let ((_n12 (not  _n11 ) ))
(let ((_n13 (+   _n0   (ite  _n12  1 0) ) ))
(let ((_n14 (ite (=  (ite  _n11  1 0)  1)  _n6   _n13  ) ))
(let ((_n15 (=   _n14   _n9 ) ))
(let ((_n17 pkt_0_3_5_0 ))
(let ((_n18 (ite (=  _n0  29)  _n17   (ite  _n5  1 0)  ) ))
(let ((_n19 (ite (=  _n0  29)  _n17   _n18  ) ))
(let ((_n20 (ite (=  _n0  29)  (ite  _n1  1 0)   _n17  ) ))
(let ((_n21 (ite (=  _n0  29)  _n20   _n17  ) ))
(let ((_n22 (ite (=  _n0  29)  _n21   _n17  ) ))
(let ((_n23 (ite (=  _n0  29)  _n22   _n19  ) ))
(let ((_n24 (=   _n14   (ite  _n5  1 0) ) ))
(let ((_n25 (not  _n24 ) ))
(let ((_n26 (ite (=  (ite  _n25  1 0)  1)  _n5   _n24  ) ))
(let ((_n27 (=   _n26   _n23 ) ))
(implies  (and (and (>= state_group_0_state_0_4_6_0 0) (< state_group_0_state_0_4_6_0 1024 ))  (and (>= pkt_0_3_5_0 0) (< pkt_0_3_5_0 1024 )) )   (and  _n15  _n27 )  ))))))))))))))))))))))))))))))
(check-sat)
(get-model)
(exit)